objective value:                                  -81
t_x18                                               1 	(obj:-100)
t_y18_112                                           1 	(obj:1)
t_y18_314                                           1 	(obj:1)
t_y18_220                                           1 	(obj:1)
t_y18_312                                           1 	(obj:1)
t_y18_34                                            1 	(obj:1)
t_y18_328                                           1 	(obj:1)
t_y18_172                                           1 	(obj:1)
t_y18_173                                           1 	(obj:1)
t_y18_145                                           1 	(obj:1)
t_y18_245                                           1 	(obj:1)
t_y18_283                                           1 	(obj:1)
t_y18_33                                            1 	(obj:1)
t_y18_77                                            1 	(obj:1)
t_y18_166                                           1 	(obj:1)
t_y18_69                                            1 	(obj:1)
t_y18_203                                           1 	(obj:1)
t_y18_183                                           1 	(obj:1)
t_y18_402                                           1 	(obj:1)
t_y18_87                                            1 	(obj:1)
